100 1000
401 963
261 757
665 934
969 269
967 929
693 483
14 455
742 450
349 607
709 550
314 151
543 262
821 754
30 107
316 500
628 716
814 240
824 831
526 792
99 844
721 143
327 86
597 420
888 298
378 596
847 691
98 389
305 919
142 334
377 810
185 4
877 999
596 53
829 473
196 927
316 268
422 642
354 18
61 593
315 790
188 514
481 637
254 785
555 748
470 284
557 654
639 785
652 234
837 832
706 385
111 374
652 532
15 5
901 428
949 568
217 488
81 49
125 334
185 31
81 6
314 989
660 953
126 663
186 314
495 244
698 605
617 350
136 983
706 36
762 655
955 331
142 35
731 266
721 268
649 153
273 962
494 932
914 619
947 452
932 441
47 982
397 15
331 884
997 388
271 111
42 226
441 536
260 523
153 332
790 801
485 63
763 978
346 28
948 292
479 231
732 525
212 480
539 894
363 888
282 634
